(declare-sort $$unsorted 0)
(declare-fun tptp.op ($$unsorted $$unsorted) $$unsorted)
(assert (forall ((X0 $$unsorted) (X1 $$unsorted) (X2 $$unsorted)) (let ((_let_1 (tptp.op X1 X0))) (= X0 (tptp.op (tptp.op _let_1 X2) _let_1)))))
(assert (not (forall ((X0 $$unsorted) (X1 $$unsorted) (X2 $$unsorted)) (= X0 (tptp.op (tptp.op X1 X2) (tptp.op (tptp.op X0 X0) X0))))))
(set-info :filename Equation2111_implies_Equation1755)
(check-sat-assuming ( true ))
